1,1,10,1,3,2,8,2,4,3,9,3,2,4,8,4,5,4,2,5;8,1,5,1,2,3,10,4,7,2,7,3,6,4,6,5,1,5;3,1,2,1,2,2,1,2,9,1,6,2,8,3,10,5,3,5,7,4,8,5,5,5;4,1,6,1,3,3,5,2,1,3,9,4,9,5,4,5;7,1,10,2,10,3,4,2,9,2,3,4,6,3,5,3,4,4,1,4,7,5;
